c Generated map
c Size: 13 * 13, weights in range: 1 to 10, walls: False, with ratio 0.4
c dim 3 of 4
c
p sp 169 312
c graph contains 169 nodes and 312 arcs
c
a 1 14 5
a 14 1 5
a 1 2 9
a 2 1 9
a 2 15 1
a 15 2 1
a 2 3 7
a 3 2 7
a 3 16 9
a 16 3 9
a 3 4 7
a 4 3 7
a 4 17 3
a 17 4 3
a 4 5 1
a 5 4 1
a 5 18 5
a 18 5 5
a 5 6 8
a 6 5 8
a 6 19 10
a 19 6 10
a 6 7 9
a 7 6 9
a 7 20 3
a 20 7 3
a 7 8 2
a 8 7 2
a 8 21 5
a 21 8 5
a 8 9 1
a 9 8 1
a 9 22 1
a 22 9 1
a 9 10 5
a 10 9 5
a 10 23 4
a 23 10 4
a 10 11 4
a 11 10 4
a 11 24 3
a 24 11 3
a 11 12 4
a 12 11 4
a 12 25 1
a 25 12 1
a 12 13 7
a 13 12 7
a 13 26 7
a 26 13 7
a 14 27 3
a 27 14 3
a 14 15 2
a 15 14 2
a 15 28 9
a 28 15 9
a 15 16 1
a 16 15 1
a 16 29 4
a 29 16 4
a 16 17 3
a 17 16 3
a 17 30 2
a 30 17 2
a 17 18 3
a 18 17 3
a 18 31 7
a 31 18 7
a 18 19 10
a 19 18 10
a 19 32 5
a 32 19 5
a 19 20 3
a 20 19 3
a 20 33 7
a 33 20 7
a 20 21 10
a 21 20 10
a 21 34 4
a 34 21 4
a 21 22 2
a 22 21 2
a 22 35 4
a 35 22 4
a 22 23 3
a 23 22 3
a 23 36 7
a 36 23 7
a 23 24 9
a 24 23 9
a 24 37 2
a 37 24 2
a 24 25 9
a 25 24 9
a 25 38 6
a 38 25 6
a 25 26 2
a 26 25 2
a 26 39 2
a 39 26 2
a 27 40 1
a 40 27 1
a 27 28 9
a 28 27 9
a 28 41 10
a 41 28 10
a 28 29 5
a 29 28 5
a 29 42 4
a 42 29 4
a 29 30 8
a 30 29 8
a 30 43 10
a 43 30 10
a 30 31 2
a 31 30 2
a 31 44 10
a 44 31 10
a 31 32 7
a 32 31 7
a 32 45 5
a 45 32 5
a 32 33 4
a 33 32 4
a 33 46 6
a 46 33 6
a 33 34 10
a 34 33 10
a 34 47 10
a 47 34 10
a 34 35 2
a 35 34 2
a 35 48 10
a 48 35 10
a 35 36 6
a 36 35 6
a 36 49 3
a 49 36 3
a 36 37 4
a 37 36 4
a 37 50 1
a 50 37 1
a 37 38 3
a 38 37 3
a 38 51 10
a 51 38 10
a 38 39 4
a 39 38 4
a 39 52 7
a 52 39 7
a 40 53 7
a 53 40 7
a 40 41 2
a 41 40 2
a 41 54 2
a 54 41 2
a 41 42 5
a 42 41 5
a 42 55 8
a 55 42 8
a 42 43 2
a 43 42 2
a 43 56 3
a 56 43 3
a 43 44 5
a 44 43 5
a 44 57 5
a 57 44 5
a 44 45 9
a 45 44 9
a 45 58 4
a 58 45 4
a 45 46 6
a 46 45 6
a 46 59 3
a 59 46 3
a 46 47 4
a 47 46 4
a 47 60 7
a 60 47 7
a 47 48 4
a 48 47 4
a 48 61 4
a 61 48 4
a 48 49 9
a 49 48 9
a 49 62 10
a 62 49 10
a 49 50 9
a 50 49 9
a 50 63 9
a 63 50 9
a 50 51 1
a 51 50 1
a 51 64 7
a 64 51 7
a 51 52 3
a 52 51 3
a 52 65 8
a 65 52 8
a 53 66 5
a 66 53 5
a 53 54 8
a 54 53 8
a 54 67 5
a 67 54 5
a 54 55 3
a 55 54 3
a 55 68 3
a 68 55 3
a 55 56 8
a 56 55 8
a 56 69 4
a 69 56 4
a 56 57 4
a 57 56 4
a 57 70 1
a 70 57 1
a 57 58 2
a 58 57 2
a 58 71 8
a 71 58 8
a 58 59 5
a 59 58 5
a 59 72 5
a 72 59 5
a 59 60 9
a 60 59 9
a 60 73 8
a 73 60 8
a 60 61 9
a 61 60 9
a 61 74 7
a 74 61 7
a 61 62 9
a 62 61 9
a 62 75 1
a 75 62 1
a 62 63 10
a 63 62 10
a 63 76 6
a 76 63 6
a 63 64 6
a 64 63 6
a 64 77 2
a 77 64 2
a 64 65 2
a 65 64 2
a 65 78 8
a 78 65 8
a 66 79 8
a 79 66 8
a 66 67 7
a 67 66 7
a 67 80 5
a 80 67 5
a 67 68 7
a 68 67 7
a 68 81 9
a 81 68 9
a 68 69 3
a 69 68 3
a 69 82 1
a 82 69 1
a 69 70 10
a 70 69 10
a 70 83 9
a 83 70 9
a 70 71 10
a 71 70 10
a 71 84 7
a 84 71 7
a 71 72 7
a 72 71 7
a 72 85 1
a 85 72 1
a 72 73 9
a 73 72 9
a 73 86 2
a 86 73 2
a 73 74 7
a 74 73 7
a 74 87 2
a 87 74 2
a 74 75 5
a 75 74 5
a 75 88 9
a 88 75 9
a 75 76 4
a 76 75 4
a 76 89 7
a 89 76 7
a 76 77 9
a 77 76 9
a 77 90 3
a 90 77 3
a 77 78 8
a 78 77 8
a 78 91 10
a 91 78 10
a 79 92 8
a 92 79 8
a 79 80 6
a 80 79 6
a 80 93 6
a 93 80 6
a 80 81 10
a 81 80 10
a 81 94 5
a 94 81 5
a 81 82 8
a 82 81 8
a 82 95 5
a 95 82 5
a 82 83 3
a 83 82 3
a 83 96 5
a 96 83 5
a 83 84 2
a 84 83 2
a 84 97 4
a 97 84 4
a 84 85 10
a 85 84 10
a 85 98 3
a 98 85 3
a 85 86 2
a 86 85 2
a 86 99 6
a 99 86 6
a 86 87 4
a 87 86 4
a 87 100 1
a 100 87 1
a 87 88 1
a 88 87 1
a 88 101 5
a 101 88 5
a 88 89 10
a 89 88 10
a 89 102 5
a 102 89 5
a 89 90 1
a 90 89 1
a 90 103 7
a 103 90 7
a 90 91 2
a 91 90 2
a 91 104 7
a 104 91 7
a 92 105 1
a 105 92 1
a 92 93 10
a 93 92 10
a 93 106 4
a 106 93 4
a 93 94 9
a 94 93 9
a 94 107 2
a 107 94 2
a 94 95 6
a 95 94 6
a 95 108 8
a 108 95 8
a 95 96 7
a 96 95 7
a 96 109 4
a 109 96 4
a 96 97 8
a 97 96 8
a 97 110 5
a 110 97 5
a 97 98 3
a 98 97 3
a 98 111 2
a 111 98 2
a 98 99 3
a 99 98 3
a 99 112 10
a 112 99 10
a 99 100 8
a 100 99 8
a 100 113 10
a 113 100 10
a 100 101 3
a 101 100 3
a 101 114 7
a 114 101 7
a 101 102 1
a 102 101 1
a 102 115 4
a 115 102 4
a 102 103 6
a 103 102 6
a 103 116 8
a 116 103 8
a 103 104 10
a 104 103 10
a 104 117 10
a 117 104 10
a 105 118 6
a 118 105 6
a 105 106 8
a 106 105 8
a 106 119 1
a 119 106 1
a 106 107 7
a 107 106 7
a 107 120 9
a 120 107 9
a 107 108 6
a 108 107 6
a 108 121 8
a 121 108 8
a 108 109 5
a 109 108 5
a 109 122 3
a 122 109 3
a 109 110 8
a 110 109 8
a 110 123 5
a 123 110 5
a 110 111 6
a 111 110 6
a 111 124 1
a 124 111 1
a 111 112 9
a 112 111 9
a 112 125 5
a 125 112 5
a 112 113 10
a 113 112 10
a 113 126 6
a 126 113 6
a 113 114 10
a 114 113 10
a 114 127 2
a 127 114 2
a 114 115 6
a 115 114 6
a 115 128 2
a 128 115 2
a 115 116 7
a 116 115 7
a 116 129 2
a 129 116 2
a 116 117 1
a 117 116 1
a 117 130 5
a 130 117 5
a 118 131 2
a 131 118 2
a 118 119 1
a 119 118 1
a 119 132 6
a 132 119 6
a 119 120 10
a 120 119 10
a 120 133 4
a 133 120 4
a 120 121 9
a 121 120 9
a 121 134 7
a 134 121 7
a 121 122 3
a 122 121 3
a 122 135 1
a 135 122 1
a 122 123 9
a 123 122 9
a 123 136 10
a 136 123 10
a 123 124 3
a 124 123 3
a 124 137 3
a 137 124 3
a 124 125 10
a 125 124 10
a 125 138 6
a 138 125 6
a 125 126 9
a 126 125 9
a 126 139 3
a 139 126 3
a 126 127 8
a 127 126 8
a 127 140 1
a 140 127 1
a 127 128 8
a 128 127 8
a 128 141 10
a 141 128 10
a 128 129 8
a 129 128 8
a 129 142 10
a 142 129 10
a 129 130 8
a 130 129 8
a 130 143 10
a 143 130 10
a 131 144 9
a 144 131 9
a 131 132 10
a 132 131 10
a 132 145 4
a 145 132 4
a 132 133 1
a 133 132 1
a 133 146 6
a 146 133 6
a 133 134 2
a 134 133 2
a 134 147 8
a 147 134 8
a 134 135 7
a 135 134 7
a 135 148 3
a 148 135 3
a 135 136 10
a 136 135 10
a 136 149 10
a 149 136 10
a 136 137 4
a 137 136 4
a 137 150 5
a 150 137 5
a 137 138 7
a 138 137 7
a 138 151 10
a 151 138 10
a 138 139 6
a 139 138 6
a 139 152 10
a 152 139 10
a 139 140 1
a 140 139 1
a 140 153 9
a 153 140 9
a 140 141 3
a 141 140 3
a 141 154 1
a 154 141 1
a 141 142 4
a 142 141 4
a 142 155 8
a 155 142 8
a 142 143 8
a 143 142 8
a 143 156 6
a 156 143 6
a 144 157 6
a 157 144 6
a 144 145 4
a 145 144 4
a 145 158 1
a 158 145 1
a 145 146 10
a 146 145 10
a 146 159 10
a 159 146 10
a 146 147 1
a 147 146 1
a 147 160 6
a 160 147 6
a 147 148 8
a 148 147 8
a 148 161 1
a 161 148 1
a 148 149 9
a 149 148 9
a 149 162 5
a 162 149 5
a 149 150 1
a 150 149 1
a 150 163 9
a 163 150 9
a 150 151 4
a 151 150 4
a 151 164 3
a 164 151 3
a 151 152 7
a 152 151 7
a 152 165 6
a 165 152 6
a 152 153 5
a 153 152 5
a 153 166 2
a 166 153 2
a 153 154 6
a 154 153 6
a 154 167 9
a 167 154 9
a 154 155 4
a 155 154 4
a 155 168 2
a 168 155 2
a 155 156 6
a 156 155 6
a 156 169 3
a 169 156 3
a 157 158 10
a 158 157 10
a 158 159 10
a 159 158 10
a 159 160 8
a 160 159 8
a 160 161 10
a 161 160 10
a 161 162 2
a 162 161 2
a 162 163 6
a 163 162 6
a 163 164 1
a 164 163 1
a 164 165 1
a 165 164 1
a 165 166 2
a 166 165 2
a 166 167 9
a 167 166 9
a 167 168 8
a 168 167 8
a 168 169 1
a 169 168 1
